
 102   30
  10   10   10   10   10   10   10   10   10   10   10   10   10   10   10   10   10   10   10   10   10   10   10   10   10   10   10   10   10   10

   0   0   0   0   0   0   0   0   0   0   0   0   0   0   0   0   0   0   0   0   0   0   0   0   0   0   0   0   0   0   0  24 2 3 5 6 7 8 9 10 12 13 14 15 16 17 18 19 20 21 23 24 26 28 29 32 
   2   0   0   0   0   0   0   0   0   0   2   0   0   1   0   0   0   0   2   0   0   0   0   0   0   1   0   0   0   0   1  11 66 59 58 53 48 47 45 40 38 25 4 
   3   0   0   0   2   1   0   0   0   0   0   0   0   0   0   0   0   0   0   0   0   0   0   2   0   0   0   0   0   0   0  10 66 59 49 48 47 45 40 38 33 4 
   8   0   0   0   0   0   1   0   0   3   0   3   0   0   0   0   1   2   0   3   0   0   1   6   0   0   0   0   0   0   0   8 101 99 60 51 39 35 30 11 
   9   0   0   0   0   0   3   0   0   0   0   0   0   0   0   0   0   0   0   0   0   0   0   9   0   5   0   1   0   0   0  22 101 100 99 98 95 74 68 66 63 60 59 58 55 54 53 52 51 43 42 41 37 36 
   2   0   0   0   0   0   0   0   1   0   0   0   0   0   0   0   0   0   0   0   0   0   0   0   0   0   0   0   0   0   0  21 101 100 73 68 65 64 60 59 58 57 55 54 52 51 50 45 44 42 41 35 34 
   1   0   0   0   0   0   6   0   0   5   0   0   0   0   0   0   3   0   0   4   0   0   0   0   0   0   0   0   0   0   0  16 101 99 94 74 68 64 62 60 58 55 54 51 44 43 37 22 
   9   0   0   0   0   0   0   5   0   0   0   0   0   2   0   0   0   0   0   7   1   0   0   0   0   0   1   0   0   0   0  17 100 98 97 95 65 63 60 59 58 57 55 53 52 45 41 40 36 
   9   0   0   0   0   0   0   0   0   0   0   0   0   0   1   0   5   0   0   0   0   0   0   0   0   0   5   0   2   0   0  18 101 100 98 95 74 72 65 63 60 59 58 55 54 53 43 39 37 36 
   3   0   1   0   0   0   0   0   0   0   0   0   0   4   0   0   0   0   0   0   0   0   0   0   0   0   0   0   0   0   0   9 99 64 63 50 44 40 36 31 30 
   7   1   0   0   0   0   4   0   0   4   0   0   0   0   0   0   0   0   8   0   0   0   0   0   0   0   0   0   0   0   0  14 94 90 74 73 72 65 64 63 62 57 54 50 43 27 
   6   0   0   0   0   0   7   3   0   0   0   0   0   0   0   1   0   0   0   0   0   0   0   0   0   0   0   0   3   0   0  11 101 99 94 90 62 57 51 43 42 40 27 
   4   0   0   0   0   0   5   0   0   0   0   0   0   0   0   5   0   2   0   0   0   0   0   0   1   4   0   0   0   0   0  19 101 98 97 90 87 86 74 68 65 64 63 62 61 58 54 48 47 46 44 
   9   0   8   0   0   0   0   9   0   0   0   4   0   0  10   0   0   0   0   7   0   0   0   0   0   0   0   0   0   0   0  12 101 99 98 97 74 73 55 54 52 44 37 35 
   2   0   0   0   0   0   0   0   0   0   0   0   0   0   0   0   0   0   0   0   0   0   0   8   3   9   0   0   0   0   0  16 101 100 99 94 92 90 72 70 69 68 62 56 53 44 43 37 
   6   0   8   0   0   0   0   0   0   0   0   0   0   0   0   0   0   0   0   0   0   0   0   0   0   0   0   0   0   2   0  11 101 99 98 92 64 62 54 48 47 36 30 
   9   0   0   0   0   0   0   0   0   3   0   0   0   0   0   0   0   0   0   7   0   1   5   0   0   0   0   0   0   4   0  14 100 99 96 94 92 87 83 69 60 58 54 44 43 33 
  10   0   0   0   0   0   0   0   0   0   0   0   0   0   0   0   0   0   0   0   0   0   5   0   0   0   0   0   0   4   0  15 101 98 96 92 87 86 73 72 68 61 54 48 47 46 44 
   1   0   0   0   0   0   0   0   0   0   0   6   0   0   0   0   0   0   0   0   0   0   0   0   0   0   0   0   0   0   0  13 97 95 93 74 68 65 63 59 58 54 51 48 34 
   7   5   0   0   6   0   0   0   6   0   0   0   0   0   5   0   0   0   0   0   0   0   0   0   0   0   0   0   0   0   0  16 100 94 93 92 90 87 83 73 71 69 63 56 55 54 44 43 
  10   0   0   0   0   0   0   0   0   0   0   5   0   0   0   0   0   0   3   0   0   0   0   0   0   0   0   0   0   0   0  19 100 99 96 95 93 92 90 89 88 86 83 74 73 69 62 58 56 54 52 
   6   0   1   0   0   0   0   0   0   0   0   0   0   0   0   0   5   0   0   4   0   0   0   0   0   0   0   0   0   0   0  14 100 98 97 93 86 82 73 72 71 69 63 56 52 38 
   2   4   0   0   0   0   0   0   0   0   0   0   1   0   3   0   0   0   0   0   0   0   0   0   6   0   5   0   0   0   0  18 100 98 96 95 94 90 89 88 87 84 83 79 74 72 71 70 69 43 
   5   0   0   0   9   0   0   0   0   0   0   0   0   0   0   0   0   0   0   5   3   0   0   0   0   0   0   0   0   8   0  12 101 94 90 89 88 84 78 67 64 57 55 40 
   3   0   0   0   0   9   0   0   0   0   0   0   0   0   9   0   0   0   0   0   0   0   0   0   0   0   0   0   6   0   7  16 100 97 94 92 90 87 86 83 79 77 71 70 69 63 62 44 
   9   7   0   0   0   0   0   0   0   0   0  10   0   9   0   0   0   0   6   8   0   0   0   0   0   0   0   0   0   0   0  14 101 99 96 92 88 86 84 83 82 74 68 67 61 41 
   7   0   0   0   0   0   0   0   0   0   4   0   0   0   0   0   0   0   0   0   0   0   0   0   8   0   0   0   0   0   0  12 100 98 96 93 83 71 70 69 68 55 52 44 
   9   0   0   0   0   0   0   0   0   0   0   0   0  10   0   0   9   0   0   0   0   0   0   0   0   0   0   0   0   0   0  17 100 99 97 96 92 90 89 87 83 80 71 70 69 67 55 54 50 
   3   0   0   2   0   0   0   0   0   0   0   0  10   0   0   0   0   0   0   0   0   0   0   0   0   0   0   0   0   0   0  17 98 97 96 95 92 90 88 87 83 82 80 79 78 69 67 58 55 
   3   0   0   0   0   0   0   0   0   0   0   0   7   0   0   6   0   0   0   0   0   0   0   7   0   7   0   5   0   0   0  12 95 94 90 89 84 83 79 71 70 69 55 43 
   6   7   0   2   0   0   0   0   0   0   0   0   0   0   0   0   0   0   0   7   7   0   8   0   0   0   0   0   0   0   0  13 101 98 90 87 86 82 77 74 72 71 69 68 48 
   9   0   0   0  10   0   0   0   0   0   0   0   0   0   0   7   0  10   0   7   0   0   0   0   0   0   0   0   0   0   0  15 100 99 93 89 87 86 84 83 81 80 77 71 70 67 54 
   4   0   0   0   0   0   7   0   0   0   0   0   0   0   0   0   0   0   8   5   9   0   0   6   6   0   0   0   0   0  10  12 93 90 84 82 81 80 79 73 70 67 63 55 
   2   0   0   0   0   0   0   0   0   0   5   0   0   0   0   5   0   0   0   0   8   6   0   0   0   0   0   0   0   0   0  13 99 98 92 87 86 85 83 82 81 79 77 71 67 
   8   7   0   0   0   0   0   0   0   0   8   0   0   0   0   6   0   0   0   0   0   5   0   4   0   0   0   0   0   0   4  12 94 92 90 85 83 82 81 79 78 70 69 62 
   9   5   0   0   0   0   0   0   0   0   0   0   0   0   0   0   0   7   0   0   0   0   0   0   0   0   0   0   0   6   0  12 96 94 90 89 87 85 84 83 76 73 71 69 
   6   0   0   5   0   8   0   0   0   0   0   0   0  10   0   0   0   0   0   0   0   0   0   0   0   0   0   8   0   6   0  10 93 87 84 80 79 77 76 75 71 57 
   1   0   0   0   0   0   0   0   0   0   3   0   0   0   0   0   0   0   0   0   0   0   0   7   0   7   9   6   0   0   0  12 95 90 89 88 87 85 84 83 79 77 70 67 
   5   0   0   0   0   0   0   0   0   6   0   0   0   0   0   0   0   0   0   0   0   0   6   0   0   0   0  10   0   0   0  12 97 94 93 88 87 82 81 79 77 76 70 69 
   5   7   0   0   0   0   0   0   7   0   0   0   0   0   8   0   0   0   0   0   0   0   0   0   0   0   0   0   0   0   0   7 92 91 72 70 69 68 54 
   2   0   0   0   0   0   0   0   0   0  10   0   0   0   0   0   9   0   0   0   0   0   0   0   7   0   0   0   0   0   9  10 94 93 91 90 87 81 80 79 71 70 
   4   0   0   4   0   0   0   0   0   0   0   0   0   0   0   0   0   0   0   0   0   0   0   0   0   0   0   0   0   0   0  10 85 84 83 82 80 79 78 76 72 70 
   8   0   0   0   0   5   0   0   0   0   0   0   0   0   0   6   4   0   0   0   0   0   0   0   0   0   0   0   0   0   0   9 97 91 86 85 82 81 80 77 67 
   2   0   0   0   4   0   0   0   0  10   0   0   0   0   0   0   0   0   0   0   0   0   7   0   0   7   0   0   0   0   5  10 95 91 89 88 85 84 82 81 78 75 
   2   0   0   0   0   9   6   0   0   0   0   0   0   0   0   0   0   0   0   0   0   0   0   0   6   7  10   0   0   0   0   9 99 88 87 86 83 80 78 77 70 
   8   0   0   0   0   0   4   6   0   7   0   0   0   0   0  10   0   0   0   4   0   0   0   0   0   0   0   0   0   0   0   8 94 93 80 79 77 76 71 69 
   8   0   0   0   0   0   9   0   0   0   3   0   0   0   0   6   0   0   0   0   0   8   0   0   7   5   8   0   0   6   0   8 83 82 81 80 79 78 76 70 
   8   0   0   0   4   4   0   0   7   0   5   0   0   0   0   0   0   0   5   0   0   0   0   0   0   0   0   0   0   0   0   8 89 88 84 83 80 78 76 75 
   9   0   0   0   0   0   0   0   0   0   0   6   0   8   0   0   0   0   0   0   9   0   0   3   0   0   0   0   0   5   0   8 98 96 87 84 83 77 76 75 
  10   0   0   7   0   0   0   0   0   0   0   0   5   0   0   0   0   0   0   0   0   4   0   0   0   0   0   7   0   0   0   6 93 86 84 79 77 76 
   7   0   0   0   5   0   0   0   0   7   0   9   0   0   0   0   0   0   0   0   0   0   0   0   0   0   7   0   0   0   0   5 92 82 79 77 69 
   2   0   0   0   0   0   0   0   0   0   0   0   6   0   6   0   0   0   0   0   7   9   0   0   0   0   6   0   0   0   0   4 87 85 77 67 
   1   0   0   0   0   0   0   0   0   0   0   0   0   0   5   0   0   5   0  10   0   0   0   0   0   0   0   0   0   0   0   4 88 86 84 67 
   9   0   0   0   0   0   0   0   0   0   0   0   0   0   0   0   0  10   0   0   0   3   0   0   0   8   0   0   0   0   0   5 85 82 79 76 75 
   8   6   0   0   0   0   0   0   0   0   0   0   0   5   0   0   0   0   0   0   0   0   0   0   0   0   0   5   0   3   0   5 86 85 77 76 75 
   2   0   0   0   0   5   0   0   0   4   0   0   5   0   0   7   8   0   0   0   0   0   0   0   0   0   0   0   0   0   7   5 91 80 78 76 75 
   7   0   0   0   8   0   0   0   0   0   0   0   0   0   0   4   9   0   0   0   6   0   0   0   0   0   0   0   0   0   0   4 96 86 83 81 
   4   0   0   0   0   0   0   0   0   0   0   0   8   0   6   0   0   0   6   0  10   0   0   0   0   0   0   0   0   0   0   4 85 84 81 77 
   5   0   0   0   0   0   0   0   0   0   0   5   0   0   0   0   0   0   0   0   0   0   0   0   0   0   0   0   0   0   0   4 86 82 81 75 
   1   0   0   0   0   0   0   0   0   0   0   0   0   0   0   0   0   0  10   0   0   0   0   0   0   0   0   0   0   0   0   3 80 75 71 
  10   0   0   0   0   4   0   0   0   0   0   0   0   0   0   0   0   0   0   0   0   0   0   0   0   0   0   0   4   0   0   3 80 77 69 
   7   0   0   0   0   0   7   0   0   0   0   0   0   0   0   0   0   0   0   0   0   0   0   0   0   0   0   0  10   0   0   2 80 67 
   1   0   0   0   0   0   0   0   0   0   0   0   0   0   0   0   0   0   0   0   0   7   0   0   0   0   0   0   0   8   0   3 88 78 76 
   8   0   0   0   0   6   0   0   0   0   0   2   0   0   0   0   0   5   0   0   0   0   0   0   0   4   5   0   0   0   0   3 83 80 75 
   7   0   0   7   6   0   0   0   0   0   0   0   0   0   0   7   0   7   0   0   0   0   0   0   0   0   0   0   0   0   0   3 92 84 76 
   2   0   9   0   0   6   0   0   0   0   0   4   5   0   0   5   0   0   0   6   0   9   0   0   0   0   0   5   0   0   0   3 87 82 75 
  10   0   0   0   0   0   0   0   0   0   0   0   0   0   0   0   0   0   0   0   5   7   0   0   0   0   0   0   0   0   0   2 76 75 
   5   0   0   0   0   0   5   0   0   0   0   0   0   0   0   0   0   0   0   0   0   4   0   0   0   0   0   0   0   0   0   2 79 76 
  10   0   0   5   0   0   0   0   0   0   0   0   0   0   0   0   0   0   0   0   0   0   0   0   0   0   8   7   0   0   0   1 75 
   8   0   0   0  10   9   0   5   0   0  10   0   0   0   0   0   0   0   0   0   0   0   0   0   0   0   0   0   0   0   0   1 75 
   2   0   0   0   0   0   0   0   0   0   0   0   0   0   8   4   0   0   0   0   0   0   0   0   8   0   0   0   0   0   0   1 78 
   7   0   7   0   0   0   6   0   0   0   0   0   0   0   0   0   0   0   0   0   0   0   9   0   0   3   0   0   0   0   0   1 81 
   9   0   0   0   0   0   0   0   0   0   0   0   6   0   0   0   0   0   0   8   0   6   0   0   0   0   2   0   0   0   0   1 77 
   5   0   0   0   0   4   8   0   0   0   0  10  10   0   0   0   5   0   0   0   0   0   0   4   0   0   0   0   0   0   0   1 75 
   7   8   6   0   0   0   0   0   0   0   0   0   0   0   0   0   5   6   0   0   0   0   0   0   0   7   0   0   0   0   0   1 102
   3   7   0   0   0   0   0   0  10   0   0   0   0   0   0   0   7   0   0   0   0   0   0   6   0   0   0   0   0   0   0   1 102
   1   0   0   0   3   0   0   0   0   0   0   0   0   0   0   0   0   0   0   0   0   9   0   0   0   0   0   0   0   0   0   1 102
   3   0   0   0   0   8   0   0   4   0   0   5   0   0   0   0   0   0   0   0   0   0   7   0   0   0   0   0   4   0   0   1 102
   8   4   0   0   0   0   0   0   0   0   0   0   0   0   0   3   0   0   0   0   0   0   0   0   0   0   0   0   0   8   0   1 102
   9   0   0   0   0   6   0   0   0   0   0   0   0   0   6   8   0   0   0   0   0   0   0   0   0   0   0   0   0   0   0   1 102
  10   4   0   0   6   0   0   0   0   0   0   0   0   0   0   0   0   0   0   0   0   5   0   0   0   0   0   2   0   0   0   1 102
   1   0   0   0   0   0   0   0   6   0   0   0   0   5   0   0   0   0   0   3   0   0   0   0   0   0   0   0   0   0   0   1 102
   7   0   0   0   0   0   0   0   0   4   0   9   6   0   0   0   4   0   0   6   0   0   0   0   7   0   0   0   0   2   0   1 102
   8   0   7  10   9   0   0   0   0   0   0   0   0   0   0   0   0   0   0   0   0   5   0   0   0   0   0   0   0   8   0   1 102
   2   0   0   0   0   0   9   0   0   0   0   0   0   0   0   0   0   0   0   5   0   0   0   0   0   0   0   0   9   0   0   1 102
   2   0   0   0   0   0   0   0   0   0   0   0   0   0   0   0   0   0   8   0   0   0   0   0   0   0   0   0   9   0   0   1 102
   9   0   0   0   0   0   0   6   0   0   8   0   0   0   0   0   0   0   0   7   0   0   0  10   0   0   0   0   0   0   0   1 102
   7   0   0   0   2   0   3   0   0   0   0   0   0   0   0   0   9   0   0   0   0   0   0   0   0   0   0   0   0   8   0   1 102
   3   9   0   0   0   6   0   0   0   0   0   0   0   0   8   0   0   0   0   0   0   0   0   0   0   0   0   0   0   0   5   1 102
   5   9   0   0   0   0   0   0   5   0   0   0   0   0   0   0   0   0   0   0   0   0   4   0   0   0   0   0   0   0   0   1 102
   6   0   0   0   0   0   0   0   0   0   0   0   0   0   0   0   8   0   8   7   5   0   0   0   0   6   0   0   0   0   0   1 102
   9   0   0   0   6   0  10  10   0   0   0   0   0   0   0   0   0   0   0   0   0   0   0   0   0   0   0   0   0   0   0   1 102
   8   0   0   0   0   0   0   0   7  10   0   0   0   0   0   0   0   0   0   0   0   0   0   0   9   0   0   0   0   0   0   1 102
   1   0   0   0   0   0   0   0   0   0   6   0   0   0   0   0   0   0   0   0   0   0   0   0   0   0   5   0   0   0   0   1 102
   4   0   5  10   0   0   8   0   0   0   0   0   0   0   0   0   0   0   0   0   0   0   8   6   0   0   0   0   0   0   0   1 102
   6   0   0   0   0   0   0   4   0   0   0   0   0   6   0   0   5   0   0   0   0   0   0   0   0   0   7  10   0   0   0   1 102
   4   0   8   0   0   0   0   0   8   9   0   0   6   0   0   9   0   0   2   0   0   0   0   0   0   0   0   0   0   8   0   1 102
  10   0   0   8   0   0   0   0   0   0   0   0   3   0   0   0   0   0   0   0   0   0   0   0   0  10   0   0   0   0   0   1 102
   5   0   0   0   0   0   0   6   0   0   7   0   0   0   0   9   0   6   0   0   0   8   0   0   0   6   0   0   0   0   0   1 102
   1   0   0   0   0   0   0   0   5   0   7   0   0   0   3   0   0   0   0   0   2   0   0   0   4   0   0   0   0   0   0   1 102
   3   0   0   0   0   0   0   0   6   0   0   0   0   0   0   0   0   0   0   0   0   0   0   0   0   6   0   0   7  10   0   1 102
   0   0   0   0   0   0   0   0   0   0   0   0   0   0   0   0   0   0   0   0   0   0   0   0   0   0   0   0   0   0   0   0 
